size = 10;
tiles = 5;
expressions = [
    "( ([2 3 4 5 6]* 1{5} [2 3 4 5 6]{5} [2 3 4 5 6] 1{5} [2 3 4 5 6]{5} [2 3 4 5 6] 1{4} [2 3 4 5 6]{6} [2 3 4 5 6] 1{5} [2 3 4 5 6]{5} [2 3 4 5 6] 1{5} [2 3 4 5 6]{5} [2 3 4 5 6] 1{3} [2 3 4 5 6]{7} [2 3 4 5 6] 1{3} [2 3 4 5 6]{7} [2 3 4 5 6] 1{1}  [2 3 4 5 6]*) | ([2 3 4 5 6]* 1{8} [2 3 4 5 6] [2 3 4 5 6]{3} 1{7} [2 3 4 5 6] [2 3 4 5 6]{3} 1{7} [2 3 4 5 6] [2 3 4 5 6]{5} 1{5} [2 3 4 5 6] [2 3 4 5 6]{5} 1{2} [2 3 4 5 6]{1} 1{2}  [2 3 4 5 6]*) | ([2 3 4 5 6]* 1{1} [2 3 4 5 6] [2 3 4 5 6]{7} 1{3} [2 3 4 5 6] [2 3 4 5 6]{7} 1{3} [2 3 4 5 6] [2 3 4 5 6]{5} 1{5} [2 3 4 5 6] [2 3 4 5 6]{5} 1{5} [2 3 4 5 6] [2 3 4 5 6]{6} 1{4} [2 3 4 5 6] [2 3 4 5 6]{5} 1{5} [2 3 4 5 6] [2 3 4 5 6]{5} 1{5}  [2 3 4 5 6]*) | ([2 3 4 5 6]* 1{2} [2 3 4 5 6]{1} 1{2} [2 3 4 5 6]{5} [2 3 4 5 6] 1{5} [2 3 4 5 6]{5} [2 3 4 5 6] 1{7} [2 3 4 5 6]{3} [2 3 4 5 6] 1{7} [2 3 4 5 6]{3} [2 3 4 5 6] 1{8}  [2 3 4 5 6]*) | ([2 3 4 5 6]* 1{5} [2 3 4 5 6] [2 3 4 5 6]{5} 1{5} [2 3 4 5 6] [2 3 4 5 6]{6} 1{4} [2 3 4 5 6] [2 3 4 5 6]{5} 1{5} [2 3 4 5 6] [2 3 4 5 6]{5} 1{5} [2 3 4 5 6] [2 3 4 5 6]{7} 1{3} [2 3 4 5 6] [2 3 4 5 6]{7} 1{3} [2 3 4 5 6] [2 3 4 5 6]{9} 1{1}  [2 3 4 5 6]*) | ([2 3 4 5 6]* 1{8} [2 3 4 5 6]{2} [2 3 4 5 6] 1{7} [2 3 4 5 6]{3} [2 3 4 5 6] 1{7} [2 3 4 5 6]{3} [2 3 4 5 6] 1{5} [2 3 4 5 6]{5} [2 3 4 5 6] 1{2} [2 3 4 5 6]{1} 1{2}  [2 3 4 5 6]*) | ([2 3 4 5 6]* 1{1} [2 3 4 5 6]{9} [2 3 4 5 6] 1{3} [2 3 4 5 6]{7} [2 3 4 5 6] 1{3} [2 3 4 5 6]{7} [2 3 4 5 6] 1{5} [2 3 4 5 6]{5} [2 3 4 5 6] 1{5} [2 3 4 5 6]{5} [2 3 4 5 6] 1{4} [2 3 4 5 6]{6} [2 3 4 5 6] 1{5} [2 3 4 5 6]{5} [2 3 4 5 6] 1{5}  [2 3 4 5 6]*) | ([2 3 4 5 6]* 1{2} [2 3 4 5 6]{1} 1{2} [2 3 4 5 6] [2 3 4 5 6]{5} 1{5} [2 3 4 5 6] [2 3 4 5 6]{3} 1{7} [2 3 4 5 6] [2 3 4 5 6]{3} 1{7} [2 3 4 5 6] [2 3 4 5 6]{2} 1{8}  [2 3 4 5 6]*) )",
    "( ([1 3 4 5 6]* 2{2} [1 3 4 5 6]{7} [1 3 4 5 6] 2{4} [1 3 4 5 6]{6} [1 3 4 5 6] 2{4}  [1 3 4 5 6]*) | ([1 3 4 5 6]* 2{2} [1 3 4 5 6]{8} [1 3 4 5 6] 2{3} [1 3 4 5 6]{7} [1 3 4 5 6] 2{3} [1 3 4 5 6]{7} [1 3 4 5 6] 2{2}  [1 3 4 5 6]*) | ([1 3 4 5 6]* 2{4} [1 3 4 5 6] [1 3 4 5 6]{6} 2{4} [1 3 4 5 6] [1 3 4 5 6]{7} 2{2}  [1 3 4 5 6]*) | ([1 3 4 5 6]* 2{2} [1 3 4 5 6] [1 3 4 5 6]{7} 2{3} [1 3 4 5 6] [1 3 4 5 6]{7} 2{3} [1 3 4 5 6] [1 3 4 5 6]{8} 2{2}  [1 3 4 5 6]*) | ([1 3 4 5 6]* 2{2} [1 3 4 5 6]{1} [1 3 4 5 6] [1 3 4 5 6]{6} 2{4} [1 3 4 5 6] [1 3 4 5 6]{6} 2{4}  [1 3 4 5 6]*) | ([1 3 4 5 6]* 2{2} [1 3 4 5 6] [1 3 4 5 6]{7} 2{3} [1 3 4 5 6] [1 3 4 5 6]{7} 2{3} [1 3 4 5 6] [1 3 4 5 6]{8} 2{2}  [1 3 4 5 6]*) | ([1 3 4 5 6]* 2{4} [1 3 4 5 6]{6} [1 3 4 5 6] 2{4} [1 3 4 5 6]{6} [1 3 4 5 6] [1 3 4 5 6]{1} 2{2}  [1 3 4 5 6]*) | ([1 3 4 5 6]* 2{2} [1 3 4 5 6]{8} [1 3 4 5 6] 2{3} [1 3 4 5 6]{7} [1 3 4 5 6] 2{3} [1 3 4 5 6]{7} [1 3 4 5 6] 2{2}  [1 3 4 5 6]*) )",
    "( ([1 2 4 5 6]* 3{3} [1 2 4 5 6]{1} [1 2 4 5 6] [1 2 4 5 6]{6} 3{3} [1 2 4 5 6]{1} [1 2 4 5 6] [1 2 4 5 6]{7} 3{2}  [1 2 4 5 6]*) | ([1 2 4 5 6]* 3{2} [1 2 4 5 6]{2} [1 2 4 5 6] [1 2 4 5 6]{5} 3{3} [1 2 4 5 6]{2} [1 2 4 5 6] [1 2 4 5 6]{5} 3{3}  [1 2 4 5 6]*) | ([1 2 4 5 6]* 3{2} [1 2 4 5 6]{7} [1 2 4 5 6] [1 2 4 5 6]{1} 3{3} [1 2 4 5 6]{6} [1 2 4 5 6] [1 2 4 5 6]{1} 3{3}  [1 2 4 5 6]*) | ([1 2 4 5 6]* 3{3} [1 2 4 5 6]{5} [1 2 4 5 6] [1 2 4 5 6]{2} 3{3} [1 2 4 5 6]{5} [1 2 4 5 6] [1 2 4 5 6]{2} 3{2}  [1 2 4 5 6]*) | ([1 2 4 5 6]* 3{3} [1 2 4 5 6]{6} [1 2 4 5 6] [1 2 4 5 6]{1} 3{3} [1 2 4 5 6]{6} [1 2 4 5 6] [1 2 4 5 6]{1} 3{2}  [1 2 4 5 6]*) | ([1 2 4 5 6]* 3{2} [1 2 4 5 6]{6} [1 2 4 5 6] [1 2 4 5 6]{2} 3{3} [1 2 4 5 6]{5} [1 2 4 5 6] [1 2 4 5 6]{2} 3{3}  [1 2 4 5 6]*) | ([1 2 4 5 6]* 3{2} [1 2 4 5 6]{1} [1 2 4 5 6] [1 2 4 5 6]{6} 3{3} [1 2 4 5 6]{1} [1 2 4 5 6] [1 2 4 5 6]{6} 3{3}  [1 2 4 5 6]*) | ([1 2 4 5 6]* 3{3} [1 2 4 5 6]{2} [1 2 4 5 6] [1 2 4 5 6]{5} 3{3} [1 2 4 5 6]{2} [1 2 4 5 6] [1 2 4 5 6]{6} 3{2}  [1 2 4 5 6]*) )",
    "( ([1 2 3 5 6]* 4{5} [1 2 3 5 6] [1 2 3 5 6]{5} 4{5} [1 2 3 5 6] [1 2 3 5 6]{4} 4{2} [1 2 3 5 6]{3} 4{1} [1 2 3 5 6] [1 2 3 5 6]{5} 4{1} [1 2 3 5 6]{3} 4{1} [1 2 3 5 6] [1 2 3 5 6]{5} 4{2} [1 2 3 5 6]{2} 4{1} [1 2 3 5 6] [1 2 3 5 6]{5} 4{5} [1 2 3 5 6] [1 2 3 5 6]{6} 4{4} [1 2 3 5 6] [1 2 3 5 6]{7} 4{3} [1 2 3 5 6] [1 2 3 5 6]{7} 4{3} [1 2 3 5 6] [1 2 3 5 6]{7} 4{3}  [1 2 3 5 6]*) | ([1 2 3 5 6]* 4{1} [1 2 3 5 6]{2} [1 2 3 5 6] [1 2 3 5 6]{4} 4{6} [1 2 3 5 6] [1 2 3 5 6]{3} 4{3} [1 2 3 5 6]{2} 4{2} [1 2 3 5 6] 4{5} [1 2 3 5 6]{3} 4{2} [1 2 3 5 6] 4{5} [1 2 3 5 6]{3} 4{2} [1 2 3 5 6] 4{10}  [1 2 3 5 6]*) | ([1 2 3 5 6]* 4{3} [1 2 3 5 6]{7} [1 2 3 5 6] 4{3} [1 2 3 5 6]{7} [1 2 3 5 6] 4{3} [1 2 3 5 6]{7} [1 2 3 5 6] 4{4} [1 2 3 5 6]{6} [1 2 3 5 6] 4{5} [1 2 3 5 6]{5} [1 2 3 5 6] 4{1} [1 2 3 5 6]{2} 4{2} [1 2 3 5 6]{5} [1 2 3 5 6] 4{1} [1 2 3 5 6]{3} 4{1} [1 2 3 5 6]{5} [1 2 3 5 6] 4{1} [1 2 3 5 6]{3} 4{2} [1 2 3 5 6]{4} [1 2 3 5 6] 4{5} [1 2 3 5 6]{5} [1 2 3 5 6] 4{5}  [1 2 3 5 6]*) | ([1 2 3 5 6]* 4{10} [1 2 3 5 6] 4{2} [1 2 3 5 6]{3} 4{5} [1 2 3 5 6] 4{2} [1 2 3 5 6]{3} 4{5} [1 2 3 5 6] 4{2} [1 2 3 5 6]{2} 4{3} [1 2 3 5 6]{3} [1 2 3 5 6] 4{6} [1 2 3 5 6]{4} [1 2 3 5 6] [1 2 3 5 6]{2} 4{1}  [1 2 3 5 6]*) | ([1 2 3 5 6]* 4{5} [1 2 3 5 6]{5} [1 2 3 5 6] 4{5} [1 2 3 5 6]{5} [1 2 3 5 6] 4{1} [1 2 3 5 6]{3} 4{2} [1 2 3 5 6]{4} [1 2 3 5 6] 4{1} [1 2 3 5 6]{3} 4{1} [1 2 3 5 6]{5} [1 2 3 5 6] 4{1} [1 2 3 5 6]{2} 4{2} [1 2 3 5 6]{5} [1 2 3 5 6] 4{5} [1 2 3 5 6]{5} [1 2 3 5 6] 4{4} [1 2 3 5 6]{6} [1 2 3 5 6] 4{3} [1 2 3 5 6]{7} [1 2 3 5 6] 4{3} [1 2 3 5 6]{7} [1 2 3 5 6] 4{3}  [1 2 3 5 6]*) | ([1 2 3 5 6]* 4{1} [1 2 3 5 6]{7} [1 2 3 5 6] 4{6} [1 2 3 5 6]{4} [1 2 3 5 6] 4{2} [1 2 3 5 6]{2} 4{3} [1 2 3 5 6]{3} [1 2 3 5 6] 4{2} [1 2 3 5 6]{3} 4{5} [1 2 3 5 6] 4{2} [1 2 3 5 6]{3} 4{5} [1 2 3 5 6] 4{10}  [1 2 3 5 6]*) | ([1 2 3 5 6]* 4{3} [1 2 3 5 6] [1 2 3 5 6]{7} 4{3} [1 2 3 5 6] [1 2 3 5 6]{7} 4{3} [1 2 3 5 6] [1 2 3 5 6]{6} 4{4} [1 2 3 5 6] [1 2 3 5 6]{5} 4{5} [1 2 3 5 6] [1 2 3 5 6]{5} 4{2} [1 2 3 5 6]{2} 4{1} [1 2 3 5 6] [1 2 3 5 6]{5} 4{1} [1 2 3 5 6]{3} 4{1} [1 2 3 5 6] [1 2 3 5 6]{4} 4{2} [1 2 3 5 6]{3} 4{1} [1 2 3 5 6] [1 2 3 5 6]{5} 4{5} [1 2 3 5 6] [1 2 3 5 6]{5} 4{5}  [1 2 3 5 6]*) | ([1 2 3 5 6]* 4{10} [1 2 3 5 6] 4{5} [1 2 3 5 6]{3} 4{2} [1 2 3 5 6] 4{5} [1 2 3 5 6]{3} 4{2} [1 2 3 5 6] [1 2 3 5 6]{3} 4{3} [1 2 3 5 6]{2} 4{2} [1 2 3 5 6] [1 2 3 5 6]{4} 4{6} [1 2 3 5 6] [1 2 3 5 6]{7} 4{1}  [1 2 3 5 6]*) )",
    "( ([1 2 3 4 6]* 5{2} [1 2 3 4 6]{5} [1 2 3 4 6] [1 2 3 4 6]{3} 5{3} [1 2 3 4 6]{4} [1 2 3 4 6] [1 2 3 4 6]{3} 5{4} [1 2 3 4 6]{3} [1 2 3 4 6] [1 2 3 4 6]{4} 5{3} [1 2 3 4 6]{3} [1 2 3 4 6] [1 2 3 4 6]{4} 5{3}  [1 2 3 4 6]*) | ([1 2 3 4 6]* 5{3} [1 2 3 4 6]{5} [1 2 3 4 6] 5{5} [1 2 3 4 6]{5} [1 2 3 4 6] 5{4} [1 2 3 4 6]{6} [1 2 3 4 6] 5{3}  [1 2 3 4 6]*) | ([1 2 3 4 6]* 5{3} [1 2 3 4 6]{4} [1 2 3 4 6] [1 2 3 4 6]{3} 5{3} [1 2 3 4 6]{4} [1 2 3 4 6] [1 2 3 4 6]{3} 5{4} [1 2 3 4 6]{3} [1 2 3 4 6] [1 2 3 4 6]{4} 5{3} [1 2 3 4 6]{3} [1 2 3 4 6] [1 2 3 4 6]{5} 5{2}  [1 2 3 4 6]*) | ([1 2 3 4 6]* 5{3} [1 2 3 4 6] [1 2 3 4 6]{6} 5{4} [1 2 3 4 6] [1 2 3 4 6]{5} 5{5} [1 2 3 4 6] [1 2 3 4 6]{5} 5{3}  [1 2 3 4 6]*) | ([1 2 3 4 6]* 5{2} [1 2 3 4 6]{3} [1 2 3 4 6] [1 2 3 4 6]{4} 5{3} [1 2 3 4 6]{3} [1 2 3 4 6] [1 2 3 4 6]{3} 5{4} [1 2 3 4 6]{3} [1 2 3 4 6] [1 2 3 4 6]{3} 5{3} [1 2 3 4 6]{4} [1 2 3 4 6] [1 2 3 4 6]{3} 5{3}  [1 2 3 4 6]*) | ([1 2 3 4 6]* 5{3} [1 2 3 4 6]{2} [1 2 3 4 6] [1 2 3 4 6]{5} 5{5} [1 2 3 4 6] [1 2 3 4 6]{6} 5{4} [1 2 3 4 6] [1 2 3 4 6]{7} 5{3}  [1 2 3 4 6]*) | ([1 2 3 4 6]* 5{3} [1 2 3 4 6]{3} [1 2 3 4 6] [1 2 3 4 6]{4} 5{3} [1 2 3 4 6]{3} [1 2 3 4 6] [1 2 3 4 6]{3} 5{4} [1 2 3 4 6]{3} [1 2 3 4 6] [1 2 3 4 6]{3} 5{3} [1 2 3 4 6]{4} [1 2 3 4 6] [1 2 3 4 6]{3} 5{2}  [1 2 3 4 6]*) | ([1 2 3 4 6]* 5{3} [1 2 3 4 6]{7} [1 2 3 4 6] 5{4} [1 2 3 4 6]{6} [1 2 3 4 6] 5{5} [1 2 3 4 6]{5} [1 2 3 4 6] [1 2 3 4 6]{2} 5{3}  [1 2 3 4 6]*) )",
];
